40
312
4
79
85
32
62
0 2
0 5
0 6
0 9
0 11
0 12
0 14
0 19
0 22
0 23
0 24
0 26
0 28
0 31
0 32
0 38
1 2
1 3
1 4
1 5
1 6
1 8
1 9
1 11
1 12
1 13
1 15
1 17
1 22
1 34
1 38
2 4
2 5
2 6
2 7
2 12
2 14
2 15
2 16
2 17
2 18
2 21
2 26
2 28
2 30
2 31
2 34
2 36
3 7
3 11
3 14
3 16
3 21
3 23
3 26
3 29
3 30
3 32
3 33
3 34
4 10
4 11
4 12
4 13
4 17
4 19
4 22
4 30
4 31
4 35
4 39
5 8
5 10
5 11
5 15
5 19
5 23
5 25
5 28
5 30
5 36
5 38
6 7
6 8
6 9
6 12
6 14
6 16
6 19
6 22
6 24
6 28
6 29
6 30
6 32
6 38
6 39
7 12
7 13
7 14
7 16
7 19
7 20
7 25
7 26
7 31
8 10
8 12
8 14
8 15
8 16
8 18
8 19
8 21
8 28
8 29
8 32
8 33
8 35
8 38
8 39
9 11
9 13
9 15
9 16
9 17
9 18
9 21
9 23
9 30
9 32
9 34
9 38
10 11
10 13
10 16
10 17
10 19
10 21
10 23
10 26
10 28
10 33
10 34
10 36
10 39
11 12
11 14
11 17
11 19
11 22
11 26
11 27
11 30
11 31
11 33
12 14
12 19
12 21
12 22
12 23
12 25
12 26
12 29
12 31
12 32
12 34
12 36
12 38
13 14
13 15
13 17
13 18
13 22
13 23
13 24
13 25
13 27
13 28
13 31
13 32
13 33
13 38
13 39
14 16
14 18
14 21
14 22
14 31
14 32
14 33
14 34
14 35
14 37
15 16
15 20
15 26
15 28
15 29
15 30
15 32
15 34
15 36
15 39
16 21
16 22
16 23
16 24
16 27
16 30
16 32
16 33
16 34
16 36
16 38
17 18
17 19
17 20
17 26
17 28
17 30
17 32
17 33
17 38
17 39
18 19
18 20
18 22
18 29
18 33
18 34
18 35
18 36
19 20
19 21
19 22
19 23
19 26
19 29
19 30
19 38
20 24
20 26
20 30
20 31
20 36
20 37
20 39
21 26
21 36
21 38
22 25
22 26
22 28
22 29
22 30
22 31
22 33
22 35
22 37
22 38
22 39
23 28
23 31
23 32
23 34
23 38
24 28
24 31
24 34
24 39
25 27
25 30
25 33
25 34
25 35
25 36
25 39
26 27
26 31
26 37
26 38
26 39
27 30
27 33
27 34
28 30
28 31
28 32
28 38
28 39
29 32
29 34
29 35
29 39
30 31
30 33
30 34
30 35
30 38
31 38
31 39
32 35
32 37
33 35
33 36
33 37
34 36
34 38
35 37
36 37
36 38
35 26 22 19 7 31 39 13 20 6 32 9
2 33 8 37 18 28 5 3 12 24 21 14
23 4 36 11 10 27 38 29 17 16 15 1
0 34 30 25
